
  32    4
  10   10   10   10

   0   0   0   0   0   1 2 
   3  10  10  10  10   1 3 
   3  10  10  10  10   1 4 
   3  10  10  10  10   2 6 5 
   2  10  10  10  10   1 7 
   5  10  10  10  10   1 7 
   5  10  10  10  10   1 8 
   1  10  10  10  10   2 11 9 
   8  10  10  10  10   1 10 
   6  10  10  10  10   2 14 12 
   1  10  10  10  10   2 14 12 
   6  10  10  10  10   1 13 
   9  10  10  10  10   1 15 
   1  10  10  10  10   1 15 
   8  10  10  10  10   1 16 
   7  10  10  10  10   1 17 
   1  10  10  10  10   1 18 
   7  10  10  10  10   1 19 
   2  10  10  10  10   1 20 
  10  10  10  10  10   1 21 
   9  10  10  10  10   2 23 22 
   7  10  10  10  10   1 25 
   8  10  10  10  10   1 24 
   7  10  10  10  10   1 26 
   4  10  10  10  10   1 26 
   1  10  10  10  10   1 27 
   3  10  10  10  10   1 28 
   4  10  10  10  10   2 30 29 
   6  10  10  10  10   1 31 
   3  10  10  10  10   1 31 
   2  10  10  10  10   1 32
   0   0   0   0   0   0 
